
<<< setup

Version identifier: 22.1.0.0 | 2022-03-09 | 1a383f8ce
Tried aggregator 1 time.
LP Presolve eliminated 37 rows and 20 columns.
Reduced LP has 1 rows, 4 columns, and 4 nonzeros.
Presolve time = 0.00 sec. (0.01 ticks)

Iteration log . . .
Iteration:     1   Dual infeasibility =             0.000000
Iteration:     2   Dual objective     =           898.400000
main returns 0

<<< main


<<< done

